p cnf 300 792
-13 1 0
-13 -8 0
13 -1 8 0
-14 -7 0
-14 -13 0
14 7 13 0
-15 -6 0
-15 14 0
15 6 -14 0
-16 -5 0
-16 15 0
16 5 -15 0
-17 -4 0
-17 16 0
17 4 -16 0
-18 -3 0
-18 17 0
18 3 -17 0
-19 7 0
-19 13 0
19 -7 -13 0
-20 -14 0
-20 -19 0
20 14 19 0
-21 18 0
-21 20 0
21 -18 -20 0
-22 1 0
-22 -9 0
22 -1 9 0
-23 -7 0
-23 -22 0
23 7 22 0
-24 1 0
-24 18 0
24 -1 -18 0
-25 -8 0
-25 -24 0
25 8 24 0
-26 8 0
-26 24 0
26 -8 -24 0
-27 -25 0
-27 -26 0
27 25 26 0
-28 7 0
-28 22 0
28 -7 -22 0
-29 27 0
-29 -28 0
29 -27 28 0
-30 -23 0
-30 -29 0
30 23 29 0
-31 -6 0
-31 -30 0
31 6 30 0
-32 6 0
-32 30 0
32 -6 -30 0
-33 21 0
-33 -32 0
33 -21 32 0
-34 -31 0
-34 -33 0
34 31 33 0
-35 -5 0
-35 -34 0
35 5 34 0
-36 6 0
-36 -14 0
36 -6 14 0
-37 -15 0
-37 -36 0
37 15 36 0
-38 18 0
-38 37 0
38 -18 -37 0
-39 5 0
-39 34 0
39 -5 -34 0
-40 38 0
-40 -39 0
40 -38 39 0
-41 -35 0
-41 -40 0
41 35 40 0
-42 -4 0
-42 -41 0
42 4 41 0
-43 5 0
-43 -15 0
43 -5 15 0
-44 -16 0
-44 -43 0
44 16 43 0
-45 18 0
-45 44 0
45 -18 -44 0
-46 4 0
-46 41 0
46 -4 -41 0
-47 45 0
-47 -46 0
47 -45 46 0
-48 -42 0
-48 -47 0
48 42 47 0
-49 -3 0
-49 -48 0
49 3 48 0
-50 -31 0
-50 -32 0
50 31 32 0
-51 49 0
-51 50 0
51 -49 -50 0
-52 -21 0
-52 -51 0
52 21 51 0
-53 21 0
-53 51 0
53 -21 -51 0
-54 -52 0
-54 -53 0
54 52 53 0
-55 1 0
-55 -10 0
55 -1 10 0
-56 -7 0
-56 -55 0
56 7 55 0
-57 1 0
-57 49 0
57 -1 -49 0
-58 -9 0
-58 -57 0
58 9 57 0
-59 9 0
-59 57 0
59 -9 -57 0
-60 -58 0
-60 -59 0
60 58 59 0
-61 7 0
-61 55 0
61 -7 -55 0
-62 60 0
-62 -61 0
62 -60 61 0
-63 -56 0
-63 -62 0
63 56 62 0
-64 -6 0
-64 -63 0
64 6 63 0
-65 -23 0
-65 -28 0
65 23 28 0
-66 49 0
-66 65 0
66 -49 -65 0
-67 -27 0
-67 -66 0
67 27 66 0
-68 27 0
-68 66 0
68 -27 -66 0
-69 -67 0
-69 -68 0
69 67 68 0
-70 6 0
-70 63 0
70 -6 -63 0
-71 69 0
-71 -70 0
71 -69 70 0
-72 -64 0
-72 -71 0
72 64 71 0
-73 -5 0
-73 -72 0
73 5 72 0
-74 5 0
-74 72 0
74 -5 -72 0
-75 54 0
-75 -74 0
75 -54 74 0
-76 -73 0
-76 -75 0
76 73 75 0
-77 -4 0
-77 -76 0
77 4 76 0
-78 -35 0
-78 -39 0
78 35 39 0
-79 49 0
-79 78 0
79 -49 -78 0
-80 -38 0
-80 -79 0
80 38 79 0
-81 38 0
-81 79 0
81 -38 -79 0
-82 -80 0
-82 -81 0
82 80 81 0
-83 4 0
-83 76 0
83 -4 -76 0
-84 82 0
-84 -83 0
84 -82 83 0
-85 -77 0
-85 -84 0
85 77 84 0
-86 -3 0
-86 -85 0
86 3 85 0
-87 -42 0
-87 -46 0
87 42 46 0
-88 49 0
-88 87 0
88 -49 -87 0
-89 -45 0
-89 -88 0
89 45 88 0
-90 45 0
-90 88 0
90 -45 -88 0
-91 -89 0
-91 -90 0
91 89 90 0
-92 3 0
-92 85 0
92 -3 -85 0
-93 91 0
-93 -92 0
93 -91 92 0
-94 -86 0
-94 -93 0
94 86 93 0
-95 -73 0
-95 -74 0
95 73 74 0
-96 -94 0
-96 95 0
96 94 -95 0
-97 -54 0
-97 -96 0
97 54 96 0
-98 54 0
-98 96 0
98 -54 -96 0
-99 -97 0
-99 -98 0
99 97 98 0
-100 -86 0
-100 -92 0
100 86 92 0
-101 91 0
-101 -100 0
101 -91 100 0
-102 1 0
-102 -11 0
102 -1 11 0
-103 -7 0
-103 -102 0
103 7 102 0
-104 1 0
-104 -94 0
104 -1 94 0
-105 -10 0
-105 -104 0
105 10 104 0
-106 10 0
-106 104 0
106 -10 -104 0
-107 -105 0
-107 -106 0
107 105 106 0
-108 7 0
-108 102 0
108 -7 -102 0
-109 107 0
-109 -108 0
109 -107 108 0
-110 -103 0
-110 -109 0
110 103 109 0
-111 -6 0
-111 -110 0
111 6 110 0
-112 -56 0
-112 -61 0
112 56 61 0
-113 -94 0
-113 112 0
113 94 -112 0
-114 -60 0
-114 -113 0
114 60 113 0
-115 60 0
-115 113 0
115 -60 -113 0
-116 -114 0
-116 -115 0
116 114 115 0
-117 6 0
-117 110 0
117 -6 -110 0
-118 116 0
-118 -117 0
118 -116 117 0
-119 -111 0
-119 -118 0
119 111 118 0
-120 -5 0
-120 -119 0
120 5 119 0
-121 -64 0
-121 -70 0
121 64 70 0
-122 -94 0
-122 121 0
122 94 -121 0
-123 -69 0
-123 -122 0
123 69 122 0
-124 69 0
-124 122 0
124 -69 -122 0
-125 -123 0
-125 -124 0
125 123 124 0
-126 5 0
-126 119 0
126 -5 -119 0
-127 125 0
-127 -126 0
127 -125 126 0
-128 -120 0
-128 -127 0
128 120 127 0
-129 -4 0
-129 -128 0
129 4 128 0
-130 4 0
-130 128 0
130 -4 -128 0
-131 99 0
-131 -130 0
131 -99 130 0
-132 -129 0
-132 -131 0
132 129 131 0
-133 -3 0
-133 -132 0
133 3 132 0
-134 -77 0
-134 -83 0
134 77 83 0
-135 -94 0
-135 134 0
135 94 -134 0
-136 -82 0
-136 -135 0
136 82 135 0
-137 82 0
-137 135 0
137 -82 -135 0
-138 -136 0
-138 -137 0
138 136 137 0
-139 3 0
-139 132 0
139 -3 -132 0
-140 138 0
-140 -139 0
140 -138 139 0
-141 -133 0
-141 -140 0
141 133 140 0
-142 -101 0
-142 141 0
142 101 -141 0
-143 -129 0
-143 -130 0
143 129 130 0
-144 -142 0
-144 143 0
144 142 -143 0
-145 -99 0
-145 -144 0
145 99 144 0
-146 99 0
-146 144 0
146 -99 -144 0
-147 -145 0
-147 -146 0
147 145 146 0
-148 -133 0
-148 -139 0
148 133 139 0
-149 -142 0
-149 148 0
149 142 -148 0
-150 -138 0
-150 -149 0
150 138 149 0
-151 138 0
-151 149 0
151 -138 -149 0
-152 -150 0
-152 -151 0
152 150 151 0
-153 1 0
-153 -12 0
153 -1 12 0
-154 -7 0
-154 -153 0
154 7 153 0
-155 1 0
-155 -142 0
155 -1 142 0
-156 -11 0
-156 -155 0
156 11 155 0
-157 11 0
-157 155 0
157 -11 -155 0
-158 -156 0
-158 -157 0
158 156 157 0
-159 7 0
-159 153 0
159 -7 -153 0
-160 158 0
-160 -159 0
160 -158 159 0
-161 -154 0
-161 -160 0
161 154 160 0
-162 -6 0
-162 -161 0
162 6 161 0
-163 -103 0
-163 -108 0
163 103 108 0
-164 -142 0
-164 163 0
164 142 -163 0
-165 -107 0
-165 -164 0
165 107 164 0
-166 107 0
-166 164 0
166 -107 -164 0
-167 -165 0
-167 -166 0
167 165 166 0
-168 6 0
-168 161 0
168 -6 -161 0
-169 167 0
-169 -168 0
169 -167 168 0
-170 -162 0
-170 -169 0
170 162 169 0
-171 -5 0
-171 -170 0
171 5 170 0
-172 -111 0
-172 -117 0
172 111 117 0
-173 -142 0
-173 172 0
173 142 -172 0
-174 -116 0
-174 -173 0
174 116 173 0
-175 116 0
-175 173 0
175 -116 -173 0
-176 -174 0
-176 -175 0
176 174 175 0
-177 5 0
-177 170 0
177 -5 -170 0
-178 176 0
-178 -177 0
178 -176 177 0
-179 -171 0
-179 -178 0
179 171 178 0
-180 -4 0
-180 -179 0
180 4 179 0
-181 -120 0
-181 -126 0
181 120 126 0
-182 -142 0
-182 181 0
182 142 -181 0
-183 -125 0
-183 -182 0
183 125 182 0
-184 125 0
-184 182 0
184 -125 -182 0
-185 -183 0
-185 -184 0
185 183 184 0
-186 4 0
-186 179 0
186 -4 -179 0
-187 185 0
-187 -186 0
187 -185 186 0
-188 -180 0
-188 -187 0
188 180 187 0
-189 -3 0
-189 -188 0
189 3 188 0
-190 3 0
-190 188 0
190 -3 -188 0
-191 147 0
-191 -190 0
191 -147 190 0
-192 -189 0
-192 -191 0
192 189 191 0
-193 -152 0
-193 192 0
193 152 -192 0
-194 -189 0
-194 -190 0
194 189 190 0
-195 -193 0
-195 194 0
195 193 -194 0
-196 -147 0
-196 -195 0
196 147 195 0
-197 147 0
-197 195 0
197 -147 -195 0
-198 -196 0
-198 -197 0
198 196 197 0
-199 1 0
-199 -2 0
199 -1 2 0
-200 -7 0
-200 -199 0
200 7 199 0
-201 1 0
-201 -193 0
201 -1 193 0
-202 -12 0
-202 -201 0
202 12 201 0
-203 12 0
-203 201 0
203 -12 -201 0
-204 -202 0
-204 -203 0
204 202 203 0
-205 7 0
-205 199 0
205 -7 -199 0
-206 204 0
-206 -205 0
206 -204 205 0
-207 -200 0
-207 -206 0
207 200 206 0
-208 -6 0
-208 -207 0
208 6 207 0
-209 -154 0
-209 -159 0
209 154 159 0
-210 -193 0
-210 209 0
210 193 -209 0
-211 -158 0
-211 -210 0
211 158 210 0
-212 158 0
-212 210 0
212 -158 -210 0
-213 -211 0
-213 -212 0
213 211 212 0
-214 6 0
-214 207 0
214 -6 -207 0
-215 213 0
-215 -214 0
215 -213 214 0
-216 -208 0
-216 -215 0
216 208 215 0
-217 -5 0
-217 -216 0
217 5 216 0
-218 -162 0
-218 -168 0
218 162 168 0
-219 -193 0
-219 218 0
219 193 -218 0
-220 -167 0
-220 -219 0
220 167 219 0
-221 167 0
-221 219 0
221 -167 -219 0
-222 -220 0
-222 -221 0
222 220 221 0
-223 5 0
-223 216 0
223 -5 -216 0
-224 222 0
-224 -223 0
224 -222 223 0
-225 -217 0
-225 -224 0
225 217 224 0
-226 -4 0
-226 -225 0
226 4 225 0
-227 -171 0
-227 -177 0
227 171 177 0
-228 -193 0
-228 227 0
228 193 -227 0
-229 -176 0
-229 -228 0
229 176 228 0
-230 176 0
-230 228 0
230 -176 -228 0
-231 -229 0
-231 -230 0
231 229 230 0
-232 4 0
-232 225 0
232 -4 -225 0
-233 231 0
-233 -232 0
233 -231 232 0
-234 -226 0
-234 -233 0
234 226 233 0
-235 -3 0
-235 -234 0
235 3 234 0
-236 -180 0
-236 -186 0
236 180 186 0
-237 -193 0
-237 236 0
237 193 -236 0
-238 -185 0
-238 -237 0
238 185 237 0
-239 185 0
-239 237 0
239 -185 -237 0
-240 -238 0
-240 -239 0
240 238 239 0
-241 3 0
-241 234 0
241 -3 -234 0
-242 240 0
-242 -241 0
242 -240 241 0
-243 -235 0
-243 -242 0
243 235 242 0
-244 -198 0
-244 243 0
244 198 -243 0
-245 1 0
-245 -244 0
245 -1 244 0
246 2 245 0
247 -2 -245 0
-248 -246 0
-248 -247 0
249 -1 248 0
-250 -200 0
-250 -205 0
250 200 205 0
-251 -244 0
-251 250 0
251 244 -250 0
252 204 251 0
253 -204 -251 0
-254 -252 0
-254 -253 0
-255 -7 0
-255 254 0
256 -249 255 0
257 -7 254 0
-258 -256 0
-258 -257 0
-259 -208 0
-259 -214 0
259 208 214 0
-260 -244 0
-260 259 0
260 244 -259 0
261 213 260 0
262 -213 -260 0
-263 -261 0
-263 -262 0
-264 -6 0
-264 263 0
265 258 264 0
266 -6 263 0
-267 -265 0
-267 -266 0
-268 -217 0
-268 -223 0
268 217 223 0
-269 -244 0
-269 268 0
269 244 -268 0
270 222 269 0
271 -222 -269 0
-272 -270 0
-272 -271 0
-273 -5 0
-273 272 0
274 267 273 0
275 -5 272 0
-276 -274 0
-276 -275 0
-277 -226 0
-277 -232 0
277 226 232 0
-278 -244 0
-278 277 0
278 244 -277 0
279 231 278 0
280 -231 -278 0
-281 -279 0
-281 -280 0
-282 -4 0
-282 281 0
283 276 282 0
284 -4 281 0
-285 -283 0
-285 -284 0
-286 -235 0
-286 -241 0
286 235 241 0
-287 -244 0
-287 286 0
287 244 -286 0
288 240 287 0
289 -240 -287 0
-290 -288 0
-290 -289 0
-291 -3 0
-291 290 0
292 285 291 0
293 -3 290 0
-294 -292 0
-294 -293 0
295 3 4 0
296 5 -295 0
297 6 -296 0
298 7 -297 0
299 1 -298 0
-300 294 0
-300 -299 0
300 0
